
(set-logic ALL) 

(declare-datatype MyList ((Nil) (Cons (head Real) (tail MyList)) )) 
(declare-fun l0 () MyList) 
(declare-fun l1 () MyList) 
(declare-fun l2 () MyList) 
(declare-fun l3 () MyList) 
(declare-fun i0 () Real) 
(declare-fun i1 () Real) 
(assert (= l1 Nil) )
(assert (or (= l3 Nil) (= l3 Nil) (= l0 l2) (= l0 Nil)) )
(assert (not (is-Nil l3)) )
(assert (is-Cons Nil) )
(assert (= l2 Nil) )
(assert (not (= l3 Nil)) )
(assert (or (= l3 l0) (= l3 Nil)) )
(assert (is-Nil Nil) )
(check-sat)
